# created by fftool

units real
boundary p p p

atom_style full
bond_style zero nocoeff
angle_style zero nocoeff

pair_style zero 12.0 nocoeff

read_data data.eq.lmp

neighbor 2.0 bin

timestep 1.0

variable t equal step*dt

variable TK equal 300.0

compute r all property/atom xu yu zu
variable qrx atom q*c_r[1]
variable qry atom q*c_r[2]
variable qrz atom q*c_r[3]
compute M all reduce sum v_qrx v_qry v_qrz

variable MM equal "c_M[1]*c_M[1] + c_M[2]*c_M[2] + c_M[3]*c_M[3]"

fix aM all ave/time 50 2000 100000 c_M[*] v_MM file mavg.lammps
fix iM all ave/time 1 1 50 v_t c_M[*] file dipole.lammps format %16.8e 

variable eps0 equal 8.85419e-12
variable kB   equal 1.38065e-23
variable e    equal 1.60122e-19

variable epsr equal "1.0 + v_e^2 * 1.0e10 / (3 * v_eps0 * v_kB * v_TK * vol) &
   * (f_aM[4] - (f_aM[1]*f_aM[1] + f_aM[2]*f_aM[2] + f_aM[3]*f_aM[3]))"

fix EPSR all print 200000 "${t} ${epsr}" file epsr.lammps screen no

thermo_style custom step cpu v_t c_M[*] v_MM
thermo 50

rerun dump.lammpstrj dump x y z box yes
